c generated by sgen1
c Command: ./sgen1 -unsat -n 49 
p cnf 49 108
-2 -3 -4 0
-1 -3 -4 0
-1 -2 -4 0
-1 -2 -3 0
-6 -7 -8 0
-5 -7 -8 0
-5 -6 -8 0
-5 -6 -7 0
-10 -11 -12 0
-9 -11 -12 0
-9 -10 -12 0
-9 -10 -11 0
-14 -15 -16 0
-13 -15 -16 0
-13 -14 -16 0
-13 -14 -15 0
-18 -19 -20 0
-17 -19 -20 0
-17 -18 -20 0
-17 -18 -19 0
-22 -23 -24 0
-21 -23 -24 0
-21 -22 -24 0
-21 -22 -23 0
-26 -27 -28 0
-25 -27 -28 0
-25 -26 -28 0
-25 -26 -27 0
-30 -31 -32 0
-29 -31 -32 0
-29 -30 -32 0
-29 -30 -31 0
-34 -35 -36 0
-33 -35 -36 0
-33 -34 -36 0
-33 -34 -35 0
-38 -39 -40 0
-37 -39 -40 0
-37 -38 -40 0
-37 -38 -39 0
-42 -43 -44 0
-41 -43 -44 0
-41 -42 -44 0
-41 -42 -43 0
-45 -46 -47  0
-45 -46 -48  0
-45 -46 -49  0
-45 -47 -48  0
-45 -47 -49  0
-45 -48 -49  0
-46 -47 -48  0
-46 -47 -49  0
-46 -48 -49  0
-47 -48 -49  0
15 8 24 0
34 8 24 0
34 15 24 0
34 15 8 0
42 13 48 0
30 13 48 0
30 42 48 0
30 42 13 0
31 40 25 0
22 40 25 0
22 31 25 0
22 31 40 0
14 19 1 0
39 19 1 0
39 14 1 0
39 14 19 0
2 33 9 0
32 33 9 0
32 2 9 0
32 2 33 0
26 35 20 0
45 35 20 0
45 26 20 0
45 26 35 0
6 44 28 0
4 44 28 0
4 6 28 0
4 6 44 0
27 49 16 0
10 49 16 0
10 27 16 0
10 27 49 0
18 23 12 0
41 23 12 0
41 18 12 0
41 18 23 0
5 47 29 0
17 47 29 0
17 5 29 0
17 5 47 0
21 38 3 0
46 38 3 0
46 21 3 0
46 21 38 0
11 43 7  0
11 43 37  0
11 43 36  0
11 7 37  0
11 7 36  0
11 37 36  0
43 7 37  0
43 7 36  0
43 37 36  0
7 37 36  0
